$molecule
0 1
  C    0.0000000    0.0000000    0.6019825
  O    0.0000000    0.0000000   -0.6001772
  H    0.0000000   -0.9275885    1.1766889
  H    0.0000000    0.9275885    1.1766889
$end

$rem
method               pbe0
basis                6-31++G*
thresh               14
sym_ignore           1
cis_n_roots          10
rpa                  1
cis_triplets         0
$end
