$molecule
-1 1
  C   -0.1421281   -0.5887615    0.0132784
  O   -0.5075279    0.1551524    0.9076184
  O   -0.7896709   -0.5881890   -1.1673291
  H    0.7040399   -1.2491238    0.1733670
  O    0.1215348    2.0719297    3.5056679
  H    0.7006651    2.2192213    2.7160017
  H    0.2005268    1.1029752    3.6941756
  O   -0.7056857   -4.0221110    0.1091718
  H   -0.2494051   -3.7641098   -0.7309651
  H   -0.0381543   -3.8441384    0.8186354
  O    0.1086452    2.8023087   -1.1396272
  H    0.6998942    2.1532549   -1.5974123
  H    0.4159678    2.7971918   -0.1983072
$end
  O    3.0437011    0.6427538    0.7708842
  H    3.2105999   -0.1996270    0.2778555
  H    2.5927660    1.2294795    0.1131361
  O   -3.8007778   -0.3783144    0.5136525
  H   -3.4331155   -1.1774517    0.0588815
  H   -3.4347096    0.3878395    0.0040996
  O    1.9273126   -0.0830606   -3.2142862
  H    2.6948799    0.4347651   -3.5651507
  H    2.1180820   -0.1851904   -2.2480896

$rem
method      hf
basis       sto-3g !6-31++G*
thresh      14
sym_ignore  1
impurity    1-4
$end
