$molecule
0 1
O           0.000000    0.000000    0.1191992
H          -0.759081    0.000000   -0.4767968
H           0.759081    0.000000   -0.4767968
$end

$rem
method      hf
basis       3-21g
$end
