$molecule
0 1
--
0 1
 O         1.5511132126    0.0434781637    0.1401417255
 H         0.5898007148    0.0042270303   -0.0028313741
 H         1.9332322043    0.2605372167   -0.7167132215
--
0 1
 O        -1.3002110914   -0.0561940690   -0.1345725448
 H        -1.6680245954   -0.9388901241   -0.0091500872
 H        -1.7225212451    0.5037806552    0.5273412720
$end

$rem
method      hf
basis       sto-3g
$end
