$molecule
0 1
 O         0.4183272099    0.1671038379    0.1010361156
 H         0.8784893276   -0.0368266484    0.9330933285
 H        -0.3195928737    0.7774121014    0.3045311682
 O         3.0208058979    0.6163509592   -0.7203724735
 H         3.3050376617    1.4762564664   -1.0295977027
 H         2.0477791789    0.6319690134   -0.7090745711
 O         2.5143150551   -0.2441947452    1.8660305097
 H         2.8954132119   -1.0661605274    2.1741344071
 H         3.0247679096    0.0221180670    1.0833062723
$end

$rem
method      hf
basis       6-311++G**
thresh      14
sym_ignore  1
impurity    1-3 !5-7 8-10
$end
